100 10
696 460
226 607
661 698
368 154
461 84
517 421
527 260
590 182
543 833
642 557
644 323
741 413
341 200
371 292
574 681
645 562
808 438
347 56
379 680
242 514
698 347
545 247
378 628
374 457
215 237
579 364
596 253
165 564
106 703
418 484
450 73
640 725
820 667
674 808
439 396
632 563
221 439
256 364
646 749
316 614
387 286
610 370
696 288
391 308
596 436
724 874
424 581
775 496
707 736
259 527
306 178
694 619
941 605
507 455
418 659
570 434
496 900
175 54
718 492
123 220
767 804
431 335
796 667
864 517
450 713
480 608
750 252
488 328
688 593
307 609
526 859
470 861
128 473
278 575
633 523
473 320
613 708
372 360
330 246
459 412
712 423
475 331
757 344
589 171
647 648
760 959
578 659
329 642
758 510
632 505
678 254
913 573
661 453
793 732
319 283
920 604
388 340
439 469
472 288
594 473
